NAME: tsp25_18
COMMENT: 25-tsp problem (Padberg/Rinaldi)
TYPE: TSP
DIMENSION: 25
EDGE_WEIGHT_TYPE : EUC_2D
NODE_COORD_SECTION
1 14 2
2 20 4
3 13 15
4 26 34
5 28 36
6 31 27
7 36 24
8 10 14
9 29 21
10 22 32
11 7 6
12 33 38
13 35 23
14 9 19
15 10 26
16 21 11
17 5 19
18 31 6
19 22 36
20 28 16
21 33 14
22 25 22
23 31 14
24 8 25
25 12 26
